Sat 19 May 19:12:33 CEST 2018
CPXPARAM_TimeLimit                               45
CPXPARAM_Threads                                 1
CPXPARAM_MIP_Strategy_CallbackReducedLP          0
Tried aggregator 8 times.
MIP Presolve eliminated 3384 rows and 3102 columns.
MIP Presolve modified 950 coefficients.
Aggregator did 2084 substitutions.
Reduced MIP has 3134 rows, 3275 columns, and 8644 nonzeros.
Reduced MIP has 3082 binaries, 13 generals, 0 SOSs, and 696 indicators.
Presolve time = 0.04 sec. (52.41 ticks)
Probing changed sense of 88 constraints.
Probing time = 0.07 sec. (51.00 ticks)
Cover probing fixed 0 vars, tightened 11 bounds.
Tried aggregator 7 times.
MIP Presolve eliminated 88 rows and 88 columns.
MIP Presolve modified 44 coefficients.
Aggregator did 1558 substitutions.
Reduced MIP has 1488 rows, 1629 columns, and 5360 nonzeros.
Reduced MIP has 1436 binaries, 193 generals, 0 SOSs, and 696 indicators.
Presolve time = 0.02 sec. (23.64 ticks)
Probing time = 0.03 sec. (20.81 ticks)
Tried aggregator 1 time.
Reduced MIP has 1488 rows, 1629 columns, and 5360 nonzeros.
Reduced MIP has 1436 binaries, 193 generals, 0 SOSs, and 696 indicators.
Presolve time = 0.00 sec. (5.03 ticks)
Probing time = 0.00 sec. (3.35 ticks)
Clique table members: 15698.
MIP emphasis: balance optimality and feasibility.
MIP search method: dynamic search.
Parallel mode: none, using 1 thread.
Root relaxation solution time = 0.01 sec. (11.00 ticks)

        Nodes                                         Cuts/
   Node  Left     Objective  IInf  Best Integer    Best Bound    ItCnt     Gap

      0     0        3.0000   598                      3.0000      275         
      0     0        3.0000   451                Cliques: 472      528         
      0     0        3.0000   308                Cliques: 472      821         
      0     0        3.0000   249                Cliques: 472     1032         
      0     0        3.0000   179                Cliques: 472     1188         
      0     0        3.0000   122                Cliques: 472     1356         
      0     0        3.0000   188                   Cuts: 472     1813         
      0     0        3.0000   178                   Cuts: 472     2105         
      0     0        3.0000   249                   Cuts: 472     2348         
      0     2        3.0000   249                      3.0000     2348         
Elapsed time = 1.84 sec. (2053.64 ticks, tree = 0.01 MB, solutions = 0)
     50    52        3.0000    46                      3.0000     5074         
*   100+   86                           23.0000        3.0000            86.96%
*   130+  110                           22.0000        3.0000            86.36%
*   160+  117                           21.0000        3.0000            85.71%
    162   117        3.0000   130       21.0000        3.0000     7423   85.71%
*   230+  174                           20.0000        3.0000            85.00%
    236   182       14.0000    50       20.0000        3.0000     8953   85.00%
*   285   194      integral     0       19.0000        3.0000     9995   84.21%
    337   242       18.0000    36       19.0000        3.0000    11542   84.21%
*   360+  211                           18.0000        3.0000            83.33%
    392   240        3.0000   109       18.0000        3.0000    13866   83.33%
*   410+  226                           17.0000        3.0000            82.35%
*   431   215      integral     0       16.0000        3.0000    14379   81.25%
    455   191    infeasible             16.0000        3.0000    17980   81.25%
    480   210       15.0000    23       16.0000        3.0000    20600   81.25%
*   510+  212                           15.0000        4.0000            73.33%
    510   212       15.0000    28       15.0000        4.0000    23432   73.33%
    583   181       14.0000    74       15.0000        6.0000    25925   60.00%
    671   213        6.0000   121       15.0000        6.0000    35038   60.00%
Elapsed time = 4.28 sec. (5250.23 ticks, tree = 3.12 MB, solutions = 9)
    755   231        6.0000   119       15.0000        6.0000    44899   60.00%
    934   123    infeasible             15.0000       11.0000    56289   26.67%

Clique cuts applied:  601
Implied bound cuts applied:  127

Root node processing (before b&c):
  Real time             =    1.82 sec. (2042.50 ticks)
Sequential b&c:
  Real time             =    4.42 sec. (6042.83 ticks)
                          ------------
Total (root+branch&cut) =    6.24 sec. (8085.33 ticks)
   | W
 L |  0  1  2 
-------------
 0 |  5  5  5 
 1 |  3  8  8 
 2 |  1  8  8 
 3 | 11 11 11 
 4 | 11 11 11 
 5 | 11 11 11 
 6 |  .  9  9 
 7 |  6  9  9 
 8 |  6  7  7 
 9 |  6  7  7 
10 | 12 12 12 
11 | 12 12 12 
12 | 12 12 12 
13 |  2 10 10 
14 |  4 10 10 
15 |  .  .  . 
16 |  .  .  . 
17 |  .  .  . 
18 |  .  .  . 
19 |  .  .  . 
20 |  .  .  . 
21 |  .  .  . 
22 |  .  .  . 
23 |  .  .  . 

Boxes' corners:       (w,l)
    Box  1 is at 
        top left     (0,2)
        bottom right (0,2)

    Box  2 is at 
        top left     (0,13)
        bottom right (0,13)

    Box  3 is at 
        top left     (0,1)
        bottom right (0,1)

    Box  4 is at 
        top left     (0,14)
        bottom right (0,14)

    Box  5 is at 
        top left     (0,0)
        bottom right (2,0)

    Box  6 is at 
        top left     (0,7)
        bottom right (0,9)

    Box  7 is at 
        top left     (1,8)
        bottom right (2,9)

    Box  8 is at 
        top left     (1,1)
        bottom right (2,2)

    Box  9 is at 
        top left     (1,6)
        bottom right (2,7)

    Box 10 is at 
        top left     (1,13)
        bottom right (2,14)

    Box 11 is at 
        top left     (0,3)
        bottom right (2,5)

    Box 12 is at 
        top left     (0,10)
        bottom right (2,12)

    Roll length used: 15
In 6.27 seconds
